solution status: optimal solution found
objective value:                     187253.357602028
d11(0,0)                                            1 	(obj:0)
d11(1,1)                                            1 	(obj:0)
d11(1,2)                                            1 	(obj:0)
d11(1,3)                                            1 	(obj:0)
d11(2,4)                                            1 	(obj:0)
d11(2,5)                                            1 	(obj:0)
d11(2,7)                                            1 	(obj:0)
d11(2,8)                                            1 	(obj:0)
d11(2,9)                                            1 	(obj:0)
d11(2,10)                                           1 	(obj:0)
d11(2,11)                                           1 	(obj:0)
d11(3,13)                                           1 	(obj:0)
d11(3,14)                                           1 	(obj:0)
d11(3,15)                                           1 	(obj:0)
d11(3,16)                                           1 	(obj:0)
d11(3,17)                                           1 	(obj:0)
d11(3,19)                                           1 	(obj:0)
d11(3,20)                                           1 	(obj:0)
d11(3,21)                                           1 	(obj:0)
d11(3,22)                                           1 	(obj:0)
d11(3,23)                                           1 	(obj:0)
d11(3,25)                                           1 	(obj:0)
d11(3,26)                                           1 	(obj:0)
d11(3,28)                                           1 	(obj:0)
d11(3,29)                                           1 	(obj:0)
d11(3,30)                                           1 	(obj:0)
d11(3,31)                                           1 	(obj:0)
d11(3,32)                                           1 	(obj:0)
d11(3,33)                                           1 	(obj:0)
d11(3,34)                                           1 	(obj:0)
d11(3,35)                                           1 	(obj:0)
d11(3,36)                                           1 	(obj:0)
d11(3,37)                                           1 	(obj:0)
d11(3,38)                                           1 	(obj:0)
d11(3,39)                                           1 	(obj:0)
d21(3,13)                                           1 	(obj:0)
d21(3,14)                                           1 	(obj:0)
d21(3,15)                                           1 	(obj:0)
d21(3,16)                                           1 	(obj:0)
d21(3,17)                                           1 	(obj:0)
d21(3,19)                                           1 	(obj:0)
d21(3,22)                                           1 	(obj:0)
d21(3,23)                                           1 	(obj:0)
d21(3,25)                                           1 	(obj:0)
d21(3,31)                                           1 	(obj:0)
STE(1,1)                             5123.63835333346 	(obj:0)
STE(0,0)                                        14175 	(obj:0)
STE(1,2)                             6120.40435666677 	(obj:0)
STE(1,3)                             7337.85656000012 	(obj:0)
STE(2,4)                             1775.42014666679 	(obj:0)
STE(2,5)                             2772.18615000008 	(obj:0)
STE(2,6)                             3989.63835333346 	(obj:0)
STE(2,7)                              2772.1861500001 	(obj:0)
STE(2,8)                             3768.95215333339 	(obj:0)
STE(2,9)                             4986.40435666677 	(obj:0)
STE(2,10)                            3989.63835333346 	(obj:0)
STE(2,11)                            4986.40435666675 	(obj:0)
STE(2,12)                            6203.85656000012 	(obj:0)
STE(3,13)                            -1572.7980599999 	(obj:0)
STE(3,14)                           -576.032056666606 	(obj:0)
STE(3,15)                            641.420146666787 	(obj:0)
STE(3,16)                           -576.032056666605 	(obj:0)
STE(3,17)                            420.733946666685 	(obj:0)
STE(3,18)                            1638.18615000008 	(obj:0)
STE(3,19)                            641.420146666772 	(obj:0)
STE(3,20)                            1638.18615000006 	(obj:0)
STE(3,21)                            2855.63835333352 	(obj:0)
STE(3,22)                           -576.032056666581 	(obj:0)
STE(3,23)                             420.73394666671 	(obj:0)
STE(3,24)                             1638.1861500001 	(obj:0)
STE(3,25)                            420.733946666709 	(obj:0)
STE(3,26)                                  1417.49995 	(obj:0)
STE(3,27)                            2634.95215333339 	(obj:0)
STE(3,28)                            1638.18615000009 	(obj:0)
STE(3,29)                            2634.95215333338 	(obj:0)
STE(3,30)                            3852.40435666677 	(obj:0)
STE(3,31)                            641.420146666772 	(obj:0)
STE(3,32)                            1638.18615000006 	(obj:0)
STE(3,33)                            2855.63835333345 	(obj:0)
STE(3,34)                            1638.18615000006 	(obj:0)
STE(3,35)                            2634.95215333335 	(obj:0)
STE(3,36)                            3852.40435666673 	(obj:0)
STE(3,37)                            2855.63835333344 	(obj:0)
STE(3,38)                            3852.40435666673 	(obj:0)
STE(3,39)                            5069.85656000012 	(obj:0)
y1(3,23)                             1095.70698300005 	(obj:0)
y1(3,25)                             1992.79638600002 	(obj:0)
y1(3,26)                             1095.70698300005 	(obj:0)
y1(3,28)                             1992.79638600002 	(obj:0)
y1(3,29)                             1095.70698300005 	(obj:0)
y1(3,31)                             1992.79638600002 	(obj:0)
y1(3,32)                             1095.70698300005 	(obj:0)
y1(3,34)                             1992.79638600002 	(obj:0)
y1(3,35)                             1095.70698300005 	(obj:0)
y1(3,37)                             1992.79638600002 	(obj:0)
y1(3,38)                             1095.70698300005 	(obj:0)
BG(3)                                1204.56299667524 	(obj:10)
AVE(1)                               3199.95851117552 	(obj:0)
AVE(2)                               3265.15049132519 	(obj:0)
AVE(3)                               3291.35535332476 	(obj:0)
WG(1)                                3199.95851117552 	(obj:10)
WG(2)                                3265.15049132519 	(obj:10)
WG(3)                                3291.35535332476 	(obj:10)
BG(1)                                6533.54054902843 	(obj:10)
BG(2)                                 1230.7678586748 	(obj:10)
y1(1,1)                              7125.62548199989 	(obj:0)
y1(1,2)                              6228.53607899991 	(obj:0)
y1(1,3)                              5132.82909599989 	(obj:0)
y1(2,4)                                   1992.796386 	(obj:0)
y1(2,5)                              1095.70698300004 	(obj:0)
y1(2,7)                                   1992.796386 	(obj:0)
y1(2,8)                              1095.70698300004 	(obj:0)
y1(2,10)                                  1992.796386 	(obj:0)
y1(2,11)                             1095.70698300004 	(obj:0)
y1(3,13)                             1992.79638600002 	(obj:0)
y1(3,14)                             1095.70698300005 	(obj:0)
y1(3,16)                             1992.79638600002 	(obj:0)
y1(3,17)                             1095.70698300005 	(obj:0)
y1(3,19)                             1992.79638600002 	(obj:0)
y1(3,20)                             1095.70698300005 	(obj:0)
y1(3,22)                             1992.79638600002 	(obj:0)
